NAME : traveling-santa-2018-prime-paths.29450.tour
COMMENT : Length = 29450
COMMENT : Found by LKH [Keld Helsgaun] Sun Jun 12 20:00:43 2022
TYPE : TOUR
DIMENSION : 100
TOUR_SECTION
1
24
44
65
16
100
35
33
71
81
2
94
36
58
8
79
69
28
6
46
84
34
13
32
91
75
45
37
5
74
42
7
3
73
70
56
25
41
17
96
88
53
57
85
48
15
82
26
27
66
64
21
76
20
98
83
40
63
47
97
51
30
90
86
68
11
14
62
93
54
95
43
52
77
49
50
92
99
67
4
23
19
87
78
59
80
72
29
39
89
55
31
10
38
61
22
12
18
9
60
-1
EOF
